
n_res = 6;
rcap = [89, 86, 472, 497, 484, 568];
rtype = [1, 1, 2, 2, 2, 2];
n_tasks = 50;
modes =  [{1, 2, 3, 4, 5, 6}, {7, 8, 9, 10, 11, 12}, {13, 14, 15, 16, 17, 18}, {19, 20, 21, 22, 23, 24}, {25, 26, 27, 28, 29, 30}, {31, 32, 33, 34, 35, 36}, {37, 38, 39, 40, 41, 42}, {43, 44, 45, 46, 47, 48}, {49, 50, 51, 52, 53, 54}, {55, 56, 57, 58, 59, 60}, {61, 62, 63, 64, 65, 66}, {67, 68, 69, 70, 71, 72}, {73, 74, 75, 76, 77, 78}, {79, 80, 81, 82, 83, 84}, {85, 86, 87, 88, 89, 90}, {91, 92, 93, 94, 95, 96}, {97, 98, 99, 100, 101, 102}, {103, 104, 105, 106, 107, 108}, {109, 110, 111, 112, 113, 114}, {115, 116, 117, 118, 119, 120}, {121, 122, 123, 124, 125, 126}, {127, 128, 129, 130, 131, 132}, {133, 134, 135, 136, 137, 138}, {139, 140, 141, 142, 143, 144}, {145, 146, 147, 148, 149, 150}, {151, 152, 153, 154, 155, 156}, {157, 158, 159, 160, 161, 162}, {163, 164, 165, 166, 167, 168}, {169, 170, 171, 172, 173, 174}, {175, 176, 177, 178, 179, 180}, {181, 182, 183, 184, 185, 186}, {187, 188, 189, 190, 191, 192}, {193, 194, 195, 196, 197, 198}, {199, 200, 201, 202, 203, 204}, {205, 206, 207, 208, 209, 210}, {211, 212, 213, 214, 215, 216}, {217, 218, 219, 220, 221, 222}, {223, 224, 225, 226, 227, 228}, {229, 230, 231, 232, 233, 234}, {235, 236, 237, 238, 239, 240}, {241, 242, 243, 244, 245, 246}, {247, 248, 249, 250, 251, 252}, {253, 254, 255, 256, 257, 258}, {259, 260, 261, 262, 263, 264}, {265, 266, 267, 268, 269, 270}, {271, 272, 273, 274, 275, 276}, {277, 278, 279, 280, 281, 282}, {283, 284, 285, 286, 287, 288}, {289, 290, 291, 292, 293, 294}, {295, 296, 297, 298, 299, 300}];
succ =  [{23, 21, 15, 14, 11, 10, 9}, {26, 25, 23, 22, 21, 20, 19, 18, 12, 11}, {26, 25, 24, 23, 22, 21, 19, 18, 15}, {26, 24, 23, 20, 19, 18, 17, 12}, {28, 26, 25, 23, 22, 18, 15, 11}, {37, 28, 24, 23, 22, 21, 12}, {23, 22, 20, 18, 12}, {23, 22, 11}, {48, 30, 29, 25, 22, 20, 18}, {37, 35, 31, 30, 29, 28, 26, 18}, {36, 33, 32, 31, 29, 24, 17}, {33, 27, 15}, {50, 37, 36, 35, 32, 30, 29, 28, 27}, {48, 35, 33, 25, 20}, {50, 49, 48, 38, 36, 35, 32, 31, 30, 29}, {50, 33, 32, 30, 27, 23}, {48, 45, 43, 41, 38, 37, 34, 27}, {50, 45, 43, 34, 33, 32, 27}, {50, 37, 29, 28}, {49, 47, 44, 37, 34, 32, 31}, {49, 38, 35, 33, 29}, {47, 46, 45, 41, 40, 38, 35, 34}, {48, 47, 40, 36, 35, 34}, {50, 48, 45, 41, 40, 35, 34}, {50, 45, 43, 42, 41, 40, 38, 37}, {47, 45, 44, 43, 40, 39, 36}, {49, 47, 46, 44, 42, 40, 39}, {48, 44, 43, 41, 34}, {47, 46, 45, 42, 41, 40}, {45, 41, 40, 34}, {46, 45, 43, 41, 40}, {42, 41, 40, 39}, {47, 44, 40}, {42, 39}, {44, 43}, {46, 41}, {39}, {39}, {}, {}, {}, {}, {}, {}, {}, {}, {}, {}, {}, {}];
n_opt = 300;
dur = [4, 6, 11, 13, 14, 19, 1, 5, 11, 12, 16, 18, 2, 7, 10, 17, 18, 19, 9, 12, 14, 15, 17, 19, 1, 5, 9, 12, 13, 14, 4, 10, 14, 15, 17, 20, 4, 6, 8, 14, 15, 17, 1, 3, 12, 13, 14, 19, 3, 5, 8, 12, 13, 14, 2, 6, 7, 9, 11, 15, 2, 7, 10, 11, 16, 17, 7, 8, 9, 12, 17, 18, 4, 5, 7, 10, 13, 15, 2, 4, 5, 17, 19, 20, 7, 8, 13, 14, 19, 20, 2, 5, 6, 7, 10, 11, 12, 13, 16, 17, 18, 19, 7, 11, 15, 17, 19, 20, 1, 2, 3, 7, 8, 14, 1, 2, 3, 10, 12, 20, 7, 12, 17, 18, 19, 20, 5, 8, 9, 10, 12, 18, 1, 3, 8, 15, 16, 20, 3, 4, 8, 15, 16, 18, 3, 5, 6, 9, 18, 20, 1, 6, 9, 11, 14, 15, 7, 8, 9, 12, 18, 19, 1, 8, 9, 11, 12, 13, 3, 6, 7, 8, 10, 19, 3, 8, 11, 17, 19, 20, 1, 6, 11, 17, 18, 19, 2, 13, 15, 16, 18, 20, 5, 6, 11, 12, 13, 18, 7, 8, 9, 18, 19, 20, 2, 4, 11, 13, 15, 18, 8, 13, 15, 16, 17, 20, 1, 2, 4, 7, 8, 9, 3, 6, 7, 14, 15, 16, 2, 5, 6, 7, 9, 15, 3, 6, 12, 13, 14, 19, 4, 5, 9, 15, 16, 20, 3, 4, 5, 12, 15, 16, 3, 6, 8, 10, 12, 20, 4, 8, 9, 11, 15, 16, 1, 7, 8, 9, 11, 12, 3, 4, 6, 14, 15, 19, 3, 7, 8, 14, 16, 18, 10, 11, 14, 15, 16, 17, 1, 2, 3, 7, 19, 20, 1, 2, 10, 13, 14, 16];
rreq = [|9, 9, 7, 6, 5, 5, 18, 15, 14, 11, 7, 5, 19, 17, 17, 15, 14, 14, 14, 13, 13, 13, 13, 13, 19, 15, 14, 11, 8, 6, 18, 16, 13, 10, 10, 7, 19, 17, 16, 14, 11, 10, 13, 11, 11, 9, 6, 6, 12, 11, 11, 10, 10, 10, 17, 15, 12, 9, 8, 5, 10, 10, 9, 8, 5, 5, 16, 16, 14, 13, 13, 12, 10, 10, 10, 10, 10, 10, 15, 12, 12, 10, 7, 6, 16, 14, 13, 13, 11, 8, 19, 18, 16, 15, 14, 13, 13, 11, 9, 8, 7, 6, 17, 17, 17, 17, 17, 17, 7, 7, 6, 5, 4, 3, 5, 4, 3, 2, 2, 1, 15, 13, 11, 9, 9, 6, 13, 9, 7, 5, 5, 2, 16, 16, 16, 16, 16, 16, 17, 14, 11, 8, 7, 4, 18, 17, 17, 16, 16, 15, 14, 13, 12, 11, 9, 8, 20, 18, 16, 12, 12, 10, 17, 16, 14, 13, 11, 9, 6, 5, 4, 3, 2, 2, 19, 18, 18, 17, 16, 14, 2, 2, 2, 2, 2, 2, 4, 4, 4, 4, 4, 4, 16, 15, 15, 15, 15, 15, 11, 10, 8, 7, 7, 5, 5, 5, 5, 5, 5, 5, 5, 4, 4, 4, 3, 2, 6, 5, 5, 5, 5, 5, 6, 6, 5, 5, 5, 4, 17, 15, 13, 11, 8, 5, 6, 6, 6, 5, 5, 4, 17, 13, 12, 7, 6, 4, 11, 10, 10, 10, 10, 10, 17, 15, 13, 12, 10, 6, 5, 5, 3, 3, 2, 1, 9, 9, 9, 9, 9, 9, 13, 12, 10, 9, 9, 8, 19, 17, 17, 16, 14, 13, 13, 12, 11, 9, 9, 8, 15, 14, 12, 11, 9, 8, 15, 15, 12, 11, 7, 7
 |2, 2, 2, 2, 2, 2, 6, 6, 6, 5, 5, 5, 13, 12, 12, 11, 11, 10, 16, 15, 15, 14, 14, 13, 20, 18, 16, 13, 11, 11, 10, 10, 9, 7, 7, 6, 5, 5, 5, 5, 4, 4, 4, 4, 4, 3, 3, 3, 8, 8, 8, 8, 8, 8, 9, 8, 8, 8, 8, 8, 5, 3, 3, 3, 1, 1, 17, 13, 12, 9, 7, 7, 16, 14, 12, 12, 8, 8, 6, 6, 5, 4, 3, 2, 10, 7, 7, 4, 3, 1, 11, 10, 10, 10, 10, 10, 16, 14, 12, 8, 7, 3, 14, 11, 8, 7, 5, 3, 14, 12, 12, 11, 9, 7, 18, 17, 11, 9, 7, 5, 13, 12, 9, 8, 6, 5, 5, 5, 5, 5, 5, 5, 20, 17, 14, 10, 8, 4, 17, 15, 15, 15, 13, 13, 8, 8, 8, 8, 8, 8, 11, 8, 8, 5, 5, 3, 8, 8, 8, 8, 7, 7, 19, 17, 15, 12, 11, 8, 17, 16, 16, 15, 15, 15, 15, 14, 13, 12, 12, 11, 13, 11, 11, 8, 5, 4, 9, 8, 8, 8, 8, 8, 16, 16, 15, 15, 15, 14, 14, 14, 12, 10, 10, 8, 8, 7, 7, 7, 7, 7, 8, 8, 8, 8, 8, 8, 9, 9, 8, 6, 5, 4, 17, 15, 15, 14, 12, 12, 16, 15, 13, 10, 9, 8, 15, 13, 10, 10, 7, 4, 12, 11, 11, 10, 9, 9, 20, 19, 18, 17, 17, 16, 17, 15, 14, 12, 8, 7, 12, 10, 9, 9, 6, 6, 8, 6, 6, 4, 4, 3, 17, 17, 17, 17, 17, 17, 14, 12, 10, 10, 7, 7, 13, 11, 11, 10, 9, 8, 12, 10, 10, 10, 8, 8, 16, 15, 15, 15, 14, 13
 |11, 10, 7, 6, 4, 4, 13, 11, 10, 10, 8, 7, 15, 12, 11, 8, 7, 5, 18, 17, 17, 17, 17, 17, 12, 12, 10, 6, 4, 4, 12, 9, 8, 7, 6, 3, 8, 8, 7, 7, 6, 6, 19, 17, 11, 9, 5, 2, 16, 16, 16, 15, 15, 14, 9, 9, 9, 8, 8, 8, 7, 7, 7, 7, 6, 6, 18, 16, 14, 12, 8, 8, 6, 5, 4, 4, 2, 2, 6, 5, 5, 5, 5, 5, 12, 12, 10, 9, 7, 5, 5, 4, 4, 4, 4, 4, 11, 10, 9, 8, 7, 6, 15, 13, 13, 10, 10, 7, 18, 18, 17, 17, 16, 16, 17, 15, 11, 7, 6, 1, 19, 14, 14, 10, 9, 4, 8, 6, 6, 5, 3, 3, 13, 12, 12, 12, 10, 10, 10, 7, 7, 5, 4, 3, 17, 16, 15, 13, 11, 9, 6, 5, 5, 4, 4, 4, 17, 16, 13, 10, 9, 6, 16, 14, 11, 9, 8, 7, 16, 15, 14, 12, 10, 10, 10, 9, 6, 6, 2, 1, 15, 11, 11, 8, 4, 3, 13, 13, 13, 13, 13, 13, 7, 5, 5, 4, 3, 1, 15, 15, 14, 12, 12, 11, 12, 10, 10, 9, 9, 8, 15, 10, 9, 7, 6, 4, 8, 6, 6, 4, 4, 3, 6, 6, 6, 6, 5, 5, 13, 13, 12, 10, 9, 7, 18, 15, 13, 8, 7, 3, 8, 8, 8, 7, 7, 7, 11, 10, 10, 10, 10, 10, 10, 10, 10, 9, 9, 8, 15, 11, 10, 9, 6, 3, 19, 18, 15, 12, 11, 9, 10, 9, 8, 6, 5, 2, 18, 17, 15, 12, 11, 8, 17, 17, 16, 13, 12, 11, 13, 13, 13, 12, 11, 11, 6, 6, 5, 3, 3, 2
 |2, 2, 2, 2, 2, 2, 11, 11, 11, 11, 10, 10, 17, 17, 16, 16, 14, 14, 10, 9, 9, 9, 9, 9, 13, 11, 7, 7, 3, 3, 9, 7, 5, 4, 3, 2, 18, 17, 15, 15, 14, 11, 14, 12, 11, 9, 7, 4, 15, 12, 10, 9, 7, 4, 7, 6, 5, 3, 3, 1, 14, 13, 9, 6, 5, 3, 7, 7, 7, 7, 7, 7, 12, 12, 11, 11, 11, 10, 9, 7, 6, 5, 5, 4, 14, 13, 12, 11, 9, 8, 16, 16, 16, 15, 15, 15, 19, 16, 16, 12, 10, 9, 6, 5, 4, 4, 3, 3, 18, 14, 12, 11, 9, 5, 19, 16, 16, 13, 12, 11, 16, 13, 12, 10, 5, 5, 20, 18, 17, 17, 16, 15, 6, 6, 5, 3, 3, 2, 14, 13, 12, 9, 6, 4, 14, 13, 13, 11, 11, 10, 10, 10, 8, 7, 6, 4, 14, 12, 9, 6, 6, 4, 12, 12, 12, 12, 11, 11, 6, 6, 6, 5, 5, 5, 4, 4, 4, 4, 4, 4, 19, 13, 11, 10, 6, 1, 8, 8, 7, 6, 6, 5, 20, 20, 20, 20, 20, 20, 14, 12, 10, 8, 6, 3, 11, 10, 9, 7, 6, 6, 20, 15, 12, 10, 9, 5, 11, 9, 6, 5, 4, 3, 8, 8, 7, 6, 4, 4, 18, 16, 16, 15, 14, 14, 14, 12, 10, 10, 9, 7, 18, 15, 12, 8, 8, 3, 20, 17, 11, 10, 6, 4, 11, 9, 8, 8, 6, 6, 19, 18, 17, 16, 15, 15, 7, 6, 4, 3, 3, 2, 20, 16, 15, 12, 10, 9, 15, 13, 13, 13, 11, 11, 2, 2, 2, 2, 2, 2, 18, 16, 14, 14, 10, 9, 20, 17, 15, 11, 11, 8
 |17, 16, 11, 8, 6, 3, 12, 12, 11, 10, 7, 6, 11, 10, 10, 10, 8, 8, 5, 4, 4, 4, 4, 4, 16, 13, 12, 10, 9, 6, 14, 11, 11, 10, 6, 5, 5, 5, 5, 5, 5, 5, 16, 15, 12, 9, 7, 4, 19, 15, 14, 10, 9, 5, 14, 11, 9, 8, 7, 4, 6, 6, 5, 5, 4, 3, 10, 10, 10, 10, 9, 9, 20, 19, 18, 17, 16, 15, 18, 17, 16, 16, 15, 13, 10, 8, 8, 8, 7, 6, 9, 9, 7, 6, 6, 5, 13, 12, 12, 12, 11, 11, 14, 14, 14, 14, 14, 14, 18, 17, 17, 16, 15, 15, 4, 3, 3, 3, 3, 3, 4, 4, 4, 4, 4, 4, 12, 12, 12, 12, 12, 12, 16, 15, 11, 10, 8, 3, 16, 13, 11, 10, 7, 5, 16, 14, 14, 12, 7, 7, 13, 11, 11, 8, 6, 6, 9, 8, 6, 5, 4, 4, 18, 18, 15, 15, 11, 11, 9, 8, 6, 6, 5, 4, 10, 9, 7, 6, 6, 4, 18, 17, 14, 13, 10, 8, 11, 10, 9, 8, 8, 7, 12, 12, 12, 12, 12, 12, 19, 16, 15, 13, 13, 10, 11, 11, 8, 8, 6, 4, 16, 14, 11, 11, 7, 6, 12, 11, 11, 10, 10, 10, 14, 10, 9, 7, 3, 3, 10, 10, 10, 10, 10, 10, 11, 10, 9, 9, 7, 7, 5, 4, 4, 4, 3, 3, 17, 16, 14, 10, 7, 5, 16, 11, 9, 9, 4, 3, 17, 16, 15, 13, 13, 12, 12, 11, 10, 10, 8, 8, 8, 8, 7, 6, 4, 4, 19, 14, 13, 11, 8, 4, 3, 3, 3, 3, 3, 3, 16, 14, 11, 9, 7, 7, 12, 11, 9, 8, 6, 5
 |17, 17, 11, 8, 7, 5, 18, 17, 14, 13, 11, 9, 11, 10, 9, 8, 7, 6, 20, 20, 19, 20, 19, 20, 17, 16, 15, 15, 14, 13, 13, 13, 10, 9, 7, 7, 9, 9, 6, 5, 5, 2, 12, 10, 9, 8, 8, 6, 18, 15, 11, 7, 5, 2, 10, 10, 7, 6, 3, 2, 19, 17, 15, 13, 9, 8, 17, 14, 13, 11, 8, 7, 19, 17, 17, 14, 14, 12, 7, 6, 6, 6, 6, 6, 14, 14, 13, 12, 10, 10, 19, 18, 17, 16, 14, 14, 13, 13, 13, 13, 13, 13, 15, 12, 10, 9, 5, 4, 19, 19, 19, 19, 19, 19, 19, 19, 19, 19, 19, 19, 19, 19, 19, 19, 19, 19, 7, 7, 7, 6, 6, 6, 18, 17, 17, 17, 17, 17, 9, 6, 5, 4, 2, 2, 14, 12, 12, 11, 10, 10, 7, 5, 5, 4, 2, 1, 9, 7, 5, 5, 3, 3, 18, 16, 16, 15, 12, 11, 18, 18, 18, 18, 18, 18, 17, 17, 13, 11, 10, 5, 15, 14, 12, 10, 8, 7, 14, 13, 10, 9, 8, 6, 20, 15, 13, 12, 9, 7, 7, 6, 6, 4, 3, 2, 18, 17, 15, 14, 11, 10, 20, 19, 19, 19, 19, 19, 8, 7, 6, 6, 5, 4, 17, 17, 17, 17, 16, 16, 14, 11, 10, 10, 8, 6, 5, 4, 4, 3, 3, 3, 18, 17, 15, 14, 13, 13, 13, 10, 8, 7, 4, 2, 19, 18, 17, 17, 15, 15, 3, 2, 2, 2, 2, 2, 15, 13, 12, 9, 8, 6, 10, 10, 9, 8, 6, 4, 9, 8, 8, 7, 7, 6, 15, 13, 11, 11, 8, 6, 16, 15, 15, 14, 14, 14, 11, 8, 8, 7, 5, 4|];